
        $ From http://www.csplib.org/Problems/prob009/data/helmut.pdf
        $ Problem number 141
        $ Sequence length : 25
        language ESSENCE' 1.0
        letting sizemaster be 456
        letting sizes be sequence(5,7,10,11,13,15,18,19,31,49,50,52,59,60,63,72,77,115,128,129,135,142,148,179,193)
        